1231 1239
217 1352
1359 1593
980 1270
597 1004
846 594
1513 220
1007 1502
46 66
192 16
323 106
1422 259
356 782
992 1520
591 1018
252 111
796 1097
876 363
1347 203
1142 779
538 1160
956 747
1536 1119
1189 781
1439 1029
1030 1354
568 108
1401 1276
32 794
38 1489
1470 153
1048 1337
666 721
1565 591
1164 1534
1236 1155
318 353
300 413
708 956
180 610
238 176
429 735
678 1216
658 613
681 1091
942 220
562 989
423 901
237 291
60 505
222 1423
1182 33
898 1038
614 70
497 663
299 614
233 345
1374 1255
490 377
1423 554
1348 927
58 1547
335 1019
1427 687
672 899
419 622
91 1197
689 579
669 1212
580 1037
1540 965
323 1582
163 13
510 376
1501 1436
212 381
676 1173
102 264
1572 1143
138 1486
627 1156
268 1361
1524 1311
854 1043
1534 704
1416 89
1440 923
187 419
1515 167
117 1382
523 92
1090 1204
1288 217
1431 730
1464 1539
856 57
25 1005
1175 1457
970 434
1355 1066
